120
1000
200
200
199
199
198
197
197
197
194
194
194
193
193
193
192
192
192
192
191
191
190
190
188
188
188
188
187
187
186
186
185
185
185
184
183
183
183
183
182
182
182
181
181
180
179
179
179
178
178
178
177
177
176
175
174
174
173
172
172
172
172
172
171
171
171
169
169
169
169
169
169
168
168
167
167
167
167
167
167
166
166
165
165
164
164
164
164
163
163
163
162
162
161
161
160
160
160
159
159
159
158
158
158
157
157
156
156
154
154
154
153
153
153
152
152
152
152
152
151
151
